20
1 0 19
2 0 17
2 1 35
3 0 10
3 1 16
3 2 21
4 0 40
4 1 19
4 2 17
4 3 8
5 0 28
5 1 32
5 2 8
5 3 40
5 4 14
6 0 10
6 1 34
6 2 40
6 3 3
6 4 8
6 5 26
7 0 35
7 1 6
7 2 1
7 3 25
7 4 30
7 5 31
7 6 5
8 0 27
8 1 21
8 2 22
8 3 9
8 4 17
8 5 1
8 6 9
8 7 17
9 0 24
9 1 26
9 2 10
9 3 13
9 4 26
9 5 35
9 6 30
9 7 24
9 8 5
10 0 38
10 1 19
10 2 24
10 3 37
10 4 36
10 5 4
10 6 30
10 7 10
10 8 5
10 9 32
11 0 2
11 1 5
11 2 32
11 3 1
11 4 33
11 5 30
11 6 23
11 7 39
11 8 23
11 9 39
11 10 2
12 0 2
12 1 22
12 2 27
12 3 26
12 4 17
12 5 13
12 6 39
12 7 6
12 8 13
12 9 25
12 10 15
12 11 23
13 0 37
13 1 10
13 2 10
13 3 36
13 4 30
13 5 23
13 6 20
13 7 31
13 8 38
13 9 39
13 10 11
13 11 14
13 12 3
14 0 30
14 1 23
14 2 37
14 3 1
14 4 26
14 5 34
14 6 32
14 7 12
14 8 10
14 9 22
14 10 23
14 11 34
14 12 8
14 13 2
15 0 12
15 1 2
15 2 28
15 3 37
15 4 12
15 5 23
15 6 31
15 7 39
15 8 16
15 9 14
15 10 7
15 11 33
15 12 17
15 13 27
15 14 10
16 0 32
16 1 13
16 2 11
16 3 35
16 4 24
16 5 16
16 6 37
16 7 6
16 8 27
16 9 11
16 10 34
16 11 35
16 12 23
16 13 28
16 14 3
16 15 22
17 0 30
17 1 15
17 2 8
17 3 34
17 4 6
17 5 15
17 6 29
17 7 17
17 8 4
17 9 26
17 10 26
17 11 26
17 12 38
17 13 2
17 14 29
17 15 38
17 16 30
18 0 22
18 1 4
18 2 2
18 3 25
18 4 29
18 5 33
18 6 10
18 7 30
18 8 25
18 9 23
18 10 1
18 11 18
18 12 32
18 13 32
18 14 9
18 15 8
18 16 29
18 17 29
19 0 23
19 1 31
19 2 6
19 3 2
19 4 23
19 5 9
19 6 13
19 7 29
19 8 39
19 9 1
19 10 17
19 11 18
19 12 40
19 13 11
19 14 18
19 15 6
19 16 14
19 17 28
19 18 40
